multiobj/instances/reallike/Ter-rl-5-2-0.00-1.0-1.in
5 2
0 123 17 72 89 
123 0 116 51 121 
17 116 0 64 101 
72 51 64 0 97 
89 121 101 97 0 
0 0 711 0 4271 
0 0 726 116 0 
711 726 0 183 0 
0 116 183 0 37 
4271 0 0 37 0 
0 232 0 0 536 
232 0 0 95 0 
0 0 0 0 14542 
0 95 0 0 55977 
536 0 14542 55977 0 
