multiobj/solutions/reallike/Ter-rl-5-2-0.00-1.0-1.out
10 2
2 1 3 4 0 
380434 12152992 
0 1 4 3 2 
499534 10187526 
1 4 0 2 3 
774166 9389110 
2 4 0 1 3 
776954 7942164 
0 4 2 1 3 
860152 7712500 
3 4 1 0 2 
861826 5407488 
3 1 4 0 2 
922682 4956344 
3 1 4 2 0 
993786 4614582 
4 1 3 2 0 
1023818 4170858 
4 1 3 0 2 
1130874 3952380 
